p edge 113 2196
e 3 1
e 8 1
e 9 1
e 10 1
e 12 1
e 14 1
e 19 1
e 26 1
e 27 1
e 29 1
e 30 1
e 33 1
e 34 1
e 35 1
e 36 1
e 38 1
e 42 1
e 43 1
e 44 1
e 47 1
e 48 1
e 49 1
e 51 1
e 52 1
e 53 1
e 54 1
e 56 1
e 58 1
e 61 1
e 64 1
e 65 1
e 66 1
e 67 1
e 73 1
e 75 1
e 77 1
e 78 1
e 79 1
e 81 1
e 82 1
e 85 1
e 86 1
e 87 1
e 88 1
e 89 1
e 92 1
e 93 1
e 94 1
e 95 1
e 97 1
e 98 1
e 99 1
e 100 1
e 102 1
e 103 1
e 106 1
e 110 1
e 111 1
e 113 1
e 3 2
e 4 2
e 18 2
e 19 2
e 20 2
e 21 2
e 22 2
e 30 2
e 33 2
e 35 2
e 37 2
e 38 2
e 42 2
e 45 2
e 48 2
e 51 2
e 52 2
e 53 2
e 65 2
e 68 2
e 69 2
e 73 2
e 81 2
e 83 2
e 88 2
e 89 2
e 98 2
e 102 2
e 108 2
e 109 2
e 113 2
e 5 3
e 8 3
e 9 3
e 12 3
e 13 3
e 15 3
e 18 3
e 21 3
e 22 3
e 24 3
e 25 3
e 26 3
e 27 3
e 30 3
e 33 3
e 34 3
e 36 3
e 37 3
e 38 3
e 39 3
e 40 3
e 42 3
e 43 3
e 44 3
e 46 3
e 48 3
e 50 3
e 51 3
e 52 3
e 53 3
e 54 3
e 55 3
e 56 3
e 58 3
e 59 3
e 62 3
e 64 3
e 65 3
e 66 3
e 68 3
e 69 3
e 72 3
e 73 3
e 75 3
e 79 3
e 82 3
e 83 3
e 85 3
e 86 3
e 89 3
e 93 3
e 98 3
e 100 3
e 102 3
e 104 3
e 105 3
e 106 3
e 108 3
e 109 3
e 6 4
e 8 4
e 9 4
e 12 4
e 16 4
e 30 4
e 31 4
e 33 4
e 38 4
e 42 4
e 48 4
e 57 4
e 58 4
e 59 4
e 67 4
e 83 4
e 92 4
e 93 4
e 96 4
e 113 4
e 23 5
e 25 5
e 28 5
e 43 5
e 51 5
e 54 5
e 57 5
e 79 5
e 87 5
e 92 5
e 94 5
e 102 5
e 104 5
e 109 5
e 9 6
e 12 6
e 13 6
e 16 6
e 18 6
e 19 6
e 22 6
e 27 6
e 30 6
e 34 6
e 38 6
e 39 6
e 42 6
e 44 6
e 47 6
e 50 6
e 51 6
e 52 6
e 56 6
e 58 6
e 59 6
e 62 6
e 66 6
e 67 6
e 68 6
e 69 6
e 70 6
e 71 6
e 75 6
e 76 6
e 77 6
e 82 6
e 83 6
e 86 6
e 87 6
e 89 6
e 92 6
e 96 6
e 99 6
e 100 6
e 102 6
e 103 6
e 104 6
e 105 6
e 106 6
e 109 6
e 111 6
e 113 6
e 9 7
e 12 7
e 13 7
e 26 7
e 27 7
e 28 7
e 29 7
e 30 7
e 32 7
e 34 7
e 36 7
e 38 7
e 42 7
e 43 7
e 45 7
e 47 7
e 48 7
e 50 7
e 53 7
e 57 7
e 66 7
e 67 7
e 87 7
e 94 7
e 102 7
e 104 7
e 113 7
e 9 8
e 12 8
e 13 8
e 15 8
e 16 8
e 18 8
e 19 8
e 21 8
e 22 8
e 23 8
e 24 8
e 27 8
e 28 8
e 29 8
e 30 8
e 33 8
e 34 8
e 36 8
e 37 8
e 38 8
e 39 8
e 40 8
e 42 8
e 43 8
e 44 8
e 48 8
e 50 8
e 52 8
e 55 8
e 56 8
e 58 8
e 59 8
e 61 8
e 62 8
e 63 8
e 64 8
e 65 8
e 68 8
e 72 8
e 73 8
e 78 8
e 79 8
e 81 8
e 83 8
e 85 8
e 86 8
e 87 8
e 89 8
e 90 8
e 91 8
e 93 8
e 94 8
e 96 8
e 98 8
e 100 8
e 102 8
e 108 8
e 109 8
e 113 8
e 10 9
e 11 9
e 12 9
e 13 9
e 15 9
e 18 9
e 19 9
e 20 9
e 27 9
e 29 9
e 30 9
e 31 9
e 33 9
e 34 9
e 35 9
e 36 9
e 37 9
e 38 9
e 39 9
e 40 9
e 42 9
e 43 9
e 44 9
e 45 9
e 49 9
e 51 9
e 52 9
e 56 9
e 57 9
e 59 9
e 61 9
e 62 9
e 65 9
e 66 9
e 67 9
e 68 9
e 72 9
e 73 9
e 75 9
e 78 9
e 79 9
e 80 9
e 82 9
e 83 9
e 85 9
e 86 9
e 87 9
e 88 9
e 89 9
e 92 9
e 96 9
e 97 9
e 98 9
e 99 9
e 102 9
e 103 9
e 104 9
e 105 9
e 106 9
e 108 9
e 113 9
e 26 10
e 33 10
e 40 10
e 49 10
e 50 10
e 51 10
e 53 10
e 54 10
e 62 10
e 63 10
e 72 10
e 81 10
e 82 10
e 85 10
e 86 10
e 93 10
e 98 10
e 102 10
e 106 10
e 108 10
e 13 11
e 16 11
e 26 11
e 27 11
e 29 11
e 30 11
e 31 11
e 33 11
e 34 11
e 38 11
e 39 11
e 40 11
e 42 11
e 44 11
e 45 11
e 48 11
e 51 11
e 52 11
e 55 11
e 58 11
e 65 11
e 68 11
e 72 11
e 84 11
e 85 11
e 88 11
e 94 11
e 97 11
e 99 11
e 100 11
e 103 11
e 104 11
e 109 11
e 112 11
e 17 12
e 18 12
e 22 12
e 23 12
e 27 12
e 30 12
e 32 12
e 33 12
e 34 12
e 35 12
e 36 12
e 38 12
e 40 12
e 41 12
e 42 12
e 43 12
e 44 12
e 46 12
e 47 12
e 48 12
e 49 12
e 51 12
e 53 12
e 54 12
e 56 12
e 57 12
e 60 12
e 61 12
e 62 12
e 63 12
e 64 12
e 65 12
e 66 12
e 68 12
e 70 12
e 72 12
e 73 12
e 75 12
e 78 12
e 79 12
e 82 12
e 83 12
e 85 12
e 86 12
e 87 12
e 88 12
e 89 12
e 92 12
e 93 12
e 97 12
e 98 12
e 99 12
e 100 12
e 102 12
e 103 12
e 104 12
e 105 12
e 106 12
e 108 12
e 110 12
e 112 12
e 113 12
e 19 13
e 23 13
e 30 13
e 34 13
e 36 13
e 38 13
e 40 13
e 42 13
e 47 13
e 48 13
e 52 13
e 53 13
e 55 13
e 57 13
e 58 13
e 62 13
e 63 13
e 65 13
e 67 13
e 70 13
e 78 13
e 85 13
e 86 13
e 87 13
e 88 13
e 102 13
e 106 13
e 108 13
e 113 13
e 16 14
e 21 14
e 24 14
e 30 14
e 33 14
e 34 14
e 35 14
e 38 14
e 39 14
e 41 14
e 44 14
e 49 14
e 50 14
e 52 14
e 55 14
e 58 14
e 60 14
e 61 14
e 62 14
e 66 14
e 68 14
e 82 14
e 91 14
e 93 14
e 99 14
e 100 14
e 102 14
e 104 14
e 107 14
e 108 14
e 22 15
e 25 15
e 26 15
e 30 15
e 32 15
e 33 15
e 37 15
e 38 15
e 42 15
e 46 15
e 54 15
e 59 15
e 68 15
e 78 15
e 79 15
e 81 15
e 83 15
e 87 15
e 93 15
e 98 15
e 104 15
e 105 15
e 109 15
e 111 15
e 18 16
e 24 16
e 29 16
e 34 16
e 39 16
e 41 16
e 43 16
e 44 16
e 45 16
e 47 16
e 50 16
e 52 16
e 53 16
e 57 16
e 58 16
e 65 16
e 66 16
e 68 16
e 83 16
e 87 16
e 90 16
e 91 16
e 93 16
e 97 16
e 98 16
e 99 16
e 102 16
e 103 16
e 108 16
e 113 16
e 18 17
e 26 17
e 27 17
e 34 17
e 52 17
e 57 17
e 66 17
e 84 17
e 89 17
e 91 17
e 93 17
e 94 17
e 97 17
e 99 17
e 102 17
e 103 17
e 104 17
e 105 17
e 113 17
e 19 18
e 34 18
e 36 18
e 38 18
e 39 18
e 40 18
e 42 18
e 43 18
e 44 18
e 48 18
e 49 18
e 51 18
e 53 18
e 54 18
e 55 18
e 57 18
e 58 18
e 66 18
e 68 18
e 69 18
e 78 18
e 79 18
e 82 18
e 83 18
e 87 18
e 88 18
e 89 18
e 98 18
e 100 18
e 102 18
e 106 18
e 112 18
e 22 19
e 26 19
e 27 19
e 28 19
e 30 19
e 32 19
e 33 19
e 34 19
e 36 19
e 37 19
e 43 19
e 48 19
e 49 19
e 52 19
e 53 19
e 54 19
e 56 19
e 57 19
e 58 19
e 61 19
e 64 19
e 65 19
e 66 19
e 67 19
e 68 19
e 71 19
e 72 19
e 78 19
e 83 19
e 87 19
e 93 19
e 97 19
e 101 19
e 106 19
e 108 19
e 113 19
e 30 20
e 33 20
e 36 20
e 38 20
e 42 20
e 65 20
e 73 20
e 108 20
e 112 20
e 23 21
e 30 21
e 33 21
e 38 21
e 41 21
e 42 21
e 51 21
e 56 21
e 60 21
e 61 21
e 65 21
e 73 21
e 93 21
e 98 21
e 108 21
e 112 21
e 24 22
e 26 22
e 27 22
e 29 22
e 30 22
e 31 22
e 36 22
e 43 22
e 48 22
e 50 22
e 52 22
e 55 22
e 56 22
e 57 22
e 58 22
e 61 22
e 63 22
e 66 22
e 67 22
e 68 22
e 71 22
e 78 22
e 96 22
e 99 22
e 102 22
e 106 22
e 109 22
e 113 22
e 24 23
e 29 23
e 30 23
e 33 23
e 36 23
e 38 23
e 40 23
e 41 23
e 42 23
e 43 23
e 48 23
e 49 23
e 50 23
e 51 23
e 55 23
e 56 23
e 57 23
e 59 23
e 62 23
e 64 23
e 65 23
e 66 23
e 70 23
e 71 23
e 73 23
e 82 23
e 83 23
e 85 23
e 88 23
e 93 23
e 99 23
e 100 23
e 102 23
e 106 23
e 108 23
e 111 23
e 113 23
e 27 24
e 33 24
e 34 24
e 36 24
e 38 24
e 39 24
e 44 24
e 45 24
e 50 24
e 51 24
e 53 24
e 61 24
e 63 24
e 67 24
e 69 24
e 72 24
e 85 24
e 86 24
e 99 24
e 104 24
e 106 24
e 113 24
e 26 25
e 28 25
e 30 25
e 33 25
e 34 25
e 43 25
e 44 25
e 50 25
e 51 25
e 54 25
e 55 25
e 56 25
e 63 25
e 66 25
e 72 25
e 75 25
e 78 25
e 86 25
e 87 25
e 89 25
e 93 25
e 97 25
e 103 25
e 106 25
e 110 25
e 111 25
e 28 26
e 29 26
e 30 26
e 33 26
e 38 26
e 39 26
e 40 26
e 41 26
e 42 26
e 44 26
e 45 26
e 46 26
e 48 26
e 50 26
e 51 26
e 52 26
e 53 26
e 54 26
e 55 26
e 58 26
e 59 26
e 60 26
e 65 26
e 66 26
e 71 26
e 72 26
e 75 26
e 78 26
e 82 26
e 86 26
e 87 26
e 89 26
e 90 26
e 91 26
e 94 26
e 97 26
e 99 26
e 102 26
e 103 26
e 106 26
e 108 26
e 109 26
e 110 26
e 111 26
e 113 26
e 30 27
e 34 27
e 36 27
e 38 27
e 40 27
e 42 27
e 48 27
e 50 27
e 52 27
e 53 27
e 55 27
e 56 27
e 57 27
e 61 27
e 62 27
e 66 27
e 77 27
e 83 27
e 88 27
e 89 27
e 93 27
e 94 27
e 97 27
e 102 27
e 103 27
e 104 27
e 105 27
e 106 27
e 110 27
e 30 28
e 34 28
e 36 28
e 38 28
e 42 28
e 43 28
e 46 28
e 47 28
e 48 28
e 50 28
e 51 28
e 54 28
e 55 28
e 57 28
e 59 28
e 63 28
e 72 28
e 85 28
e 86 28
e 87 28
e 93 28
e 94 28
e 96 28
e 102 28
e 106 28
e 107 28
e 112 28
e 30 29
e 33 29
e 36 29
e 37 29
e 38 29
e 39 29
e 40 29
e 44 29
e 48 29
e 50 29
e 55 29
e 57 29
e 58 29
e 67 29
e 68 29
e 82 29
e 83 29
e 84 29
e 88 29
e 93 29
e 99 29
e 102 29
e 104 29
e 113 29
e 31 30
e 33 30
e 34 30
e 35 30
e 36 30
e 37 30
e 38 30
e 39 30
e 40 30
e 41 30
e 42 30
e 43 30
e 44 30
e 45 30
e 47 30
e 48 30
e 49 30
e 50 30
e 51 30
e 52 30
e 53 30
e 54 30
e 55 30
e 56 30
e 57 30
e 58 30
e 59 30
e 60 30
e 61 30
e 62 30
e 63 30
e 64 30
e 65 30
e 66 30
e 68 30
e 69 30
e 70 30
e 71 30
e 72 30
e 73 30
e 74 30
e 75 30
e 76 30
e 77 30
e 78 30
e 79 30
e 80 30
e 81 30
e 82 30
e 84 30
e 85 30
e 86 30
e 87 30
e 88 30
e 89 30
e 90 30
e 91 30
e 92 30
e 93 30
e 94 30
e 95 30
e 98 30
e 99 30
e 100 30
e 101 30
e 102 30
e 103 30
e 104 30
e 106 30
e 108 30
e 109 30
e 110 30
e 111 30
e 112 30
e 113 30
e 33 31
e 34 31
e 37 31
e 38 31
e 40 31
e 44 31
e 61 31
e 62 31
e 100 31
e 102 31
e 109 31
e 113 31
e 38 32
e 42 32
e 52 32
e 58 32
e 89 32
e 97 32
e 102 32
e 105 32
e 113 32
e 34 33
e 35 33
e 36 33
e 37 33
e 38 33
e 39 33
e 40 33
e 42 33
e 44 33
e 46 33
e 47 33
e 48 33
e 49 33
e 50 33
e 51 33
e 53 33
e 54 33
e 55 33
e 56 33
e 57 33
e 58 33
e 59 33
e 60 33
e 61 33
e 63 33
e 64 33
e 65 33
e 66 33
e 67 33
e 68 33
e 69 33
e 71 33
e 72 33
e 73 33
e 75 33
e 76 33
e 78 33
e 79 33
e 81 33
e 84 33
e 86 33
e 87 33
e 88 33
e 89 33
e 92 33
e 93 33
e 94 33
e 98 33
e 99 33
e 100 33
e 102 33
e 103 33
e 104 33
e 106 33
e 107 33
e 109 33
e 112 33
e 113 33
e 36 34
e 38 34
e 40 34
e 42 34
e 43 34
e 44 34
e 45 34
e 46 34
e 48 34
e 49 34
e 50 34
e 51 34
e 52 34
e 55 34
e 56 34
e 58 34
e 59 34
e 61 34
e 62 34
e 64 34
e 65 34
e 66 34
e 67 34
e 68 34
e 73 34
e 76 34
e 78 34
e 79 34
e 81 34
e 82 34
e 85 34
e 86 34
e 87 34
e 88 34
e 89 34
e 91 34
e 92 34
e 93 34
e 97 34
e 98 34
e 99 34
e 102 34
e 103 34
e 104 34
e 105 34
e 106 34
e 111 34
e 113 34
e 36 35
e 38 35
e 42 35
e 50 35
e 66 35
e 72 35
e 78 35
e 85 35
e 95 35
e 100 35
e 108 35
e 38 36
e 40 36
e 41 36
e 42 36
e 44 36
e 48 36
e 50 36
e 51 36
e 55 36
e 56 36
e 59 36
e 61 36
e 63 36
e 64 36
e 65 36
e 66 36
e 67 36
e 68 36
e 69 36
e 71 36
e 72 36
e 82 36
e 83 36
e 87 36
e 88 36
e 92 36
e 93 36
e 94 36
e 96 36
e 99 36
e 100 36
e 101 36
e 102 36
e 106 36
e 108 36
e 109 36
e 111 36
e 112 36
e 113 36
e 38 37
e 39 37
e 40 37
e 42 37
e 44 37
e 45 37
e 48 37
e 53 37
e 56 37
e 57 37
e 65 37
e 76 37
e 77 37
e 83 37
e 87 37
e 88 37
e 97 37
e 98 37
e 101 37
e 102 37
e 104 37
e 108 37
e 109 37
e 113 37
e 40 38
e 41 38
e 42 38
e 43 38
e 44 38
e 45 38
e 47 38
e 48 38
e 49 38
e 50 38
e 51 38
e 52 38
e 53 38
e 54 38
e 55 38
e 56 38
e 57 38
e 58 38
e 59 38
e 60 38
e 62 38
e 65 38
e 66 38
e 67 38
e 68 38
e 72 38
e 73 38
e 75 38
e 79 38
e 80 38
e 81 38
e 82 38
e 85 38
e 87 38
e 88 38
e 89 38
e 92 38
e 93 38
e 94 38
e 95 38
e 96 38
e 97 38
e 98 38
e 99 38
e 101 38
e 102 38
e 104 38
e 105 38
e 106 38
e 108 38
e 112 38
e 113 38
e 42 39
e 44 39
e 49 39
e 57 39
e 66 39
e 79 39
e 81 39
e 82 39
e 87 39
e 89 39
e 90 39
e 91 39
e 93 39
e 96 39
e 103 39
e 104 39
e 105 39
e 42 40
e 44 40
e 48 40
e 51 40
e 53 40
e 54 40
e 55 40
e 56 40
e 57 40
e 58 40
e 59 40
e 63 40
e 64 40
e 65 40
e 66 40
e 68 40
e 69 40
e 71 40
e 72 40
e 75 40
e 79 40
e 83 40
e 85 40
e 86 40
e 88 40
e 89 40
e 93 40
e 94 40
e 96 40
e 97 40
e 100 40
e 102 40
e 103 40
e 104 40
e 106 40
e 108 40
e 113 40
e 49 41
e 56 41
e 60 41
e 65 41
e 70 41
e 85 41
e 86 41
e 87 41
e 98 41
e 102 41
e 108 41
e 109 41
e 43 42
e 44 42
e 45 42
e 47 42
e 48 42
e 49 42
e 51 42
e 52 42
e 53 42
e 54 42
e 55 42
e 56 42
e 57 42
e 58 42
e 59 42
e 61 42
e 63 42
e 65 42
e 66 42
e 68 42
e 69 42
e 72 42
e 73 42
e 76 42
e 77 42
e 79 42
e 82 42
e 83 42
e 84 42
e 85 42
e 86 42
e 87 42
e 88 42
e 89 42
e 90 42
e 92 42
e 93 42
e 94 42
e 95 42
e 96 42
e 97 42
e 98 42
e 99 42
e 101 42
e 102 42
e 104 42
e 105 42
e 106 42
e 108 42
e 110 42
e 111 42
e 112 42
e 113 42
e 44 43
e 45 43
e 46 43
e 49 43
e 51 43
e 53 43
e 54 43
e 56 43
e 58 43
e 62 43
e 65 43
e 66 43
e 72 43
e 75 43
e 78 43
e 79 43
e 82 43
e 83 43
e 85 43
e 86 43
e 87 43
e 88 43
e 89 43
e 92 43
e 93 43
e 96 43
e 97 43
e 98 43
e 99 43
e 100 43
e 101 43
e 102 43
e 103 43
e 104 43
e 106 43
e 108 43
e 111 43
e 113 43
e 48 44
e 56 44
e 57 44
e 58 44
e 59 44
e 62 44
e 63 44
e 64 44
e 66 44
e 67 44
e 68 44
e 75 44
e 76 44
e 79 44
e 81 44
e 83 44
e 85 44
e 86 44
e 87 44
e 91 44
e 93 44
e 94 44
e 98 44
e 99 44
e 100 44
e 102 44
e 103 44
e 105 44
e 106 44
e 109 44
e 111 44
e 112 44
e 113 44
e 47 45
e 48 45
e 49 45
e 51 45
e 52 45
e 56 45
e 59 45
e 60 45
e 65 45
e 68 45
e 70 45
e 72 45
e 75 45
e 78 45
e 85 45
e 86 45
e 87 45
e 93 45
e 94 45
e 99 45
e 104 45
e 106 45
e 113 45
e 48 46
e 51 46
e 54 46
e 62 46
e 67 46
e 75 46
e 78 46
e 86 46
e 87 46
e 89 46
e 94 46
e 97 46
e 107 46
e 111 46
e 113 46
e 48 47
e 51 47
e 53 47
e 57 47
e 66 47
e 70 47
e 83 47
e 88 47
e 89 47
e 92 47
e 94 47
e 95 47
e 97 47
e 100 47
e 104 47
e 113 47
e 49 48
e 50 48
e 51 48
e 52 48
e 53 48
e 55 48
e 56 48
e 58 48
e 59 48
e 61 48
e 62 48
e 64 48
e 65 48
e 66 48
e 67 48
e 71 48
e 72 48
e 73 48
e 75 48
e 78 48
e 79 48
e 83 48
e 85 48
e 86 48
e 88 48
e 89 48
e 90 48
e 92 48
e 93 48
e 94 48
e 97 48
e 98 48
e 99 48
e 100 48
e 101 48
e 102 48
e 103 48
e 104 48
e 105 48
e 106 48
e 108 48
e 109 48
e 112 48
e 113 48
e 56 49
e 62 49
e 64 49
e 68 49
e 72 49
e 73 49
e 75 49
e 80 49
e 81 49
e 82 49
e 84 49
e 86 49
e 87 49
e 88 49
e 89 49
e 91 49
e 93 49
e 97 49
e 98 49
e 99 49
e 102 49
e 103 49
e 104 49
e 106 49
e 108 49
e 110 49
e 113 49
e 51 50
e 53 50
e 55 50
e 57 50
e 58 50
e 59 50
e 60 50
e 63 50
e 65 50
e 66 50
e 71 50
e 72 50
e 79 50
e 81 50
e 87 50
e 88 50
e 93 50
e 96 50
e 99 50
e 102 50
e 103 50
e 104 50
e 106 50
e 52 51
e 54 51
e 59 51
e 60 51
e 61 51
e 63 51
e 64 51
e 66 51
e 72 51
e 73 51
e 76 51
e 78 51
e 79 51
e 80 51
e 83 51
e 85 51
e 86 51
e 87 51
e 88 51
e 89 51
e 94 51
e 95 51
e 96 51
e 97 51
e 98 51
e 99 51
e 100 51
e 102 51
e 104 51
e 106 51
e 112 51
e 113 51
e 53 52
e 57 52
e 58 52
e 62 52
e 65 52
e 68 52
e 73 52
e 75 52
e 79 52
e 84 52
e 88 52
e 89 52
e 90 52
e 92 52
e 94 52
e 102 52
e 103 52
e 105 52
e 108 52
e 109 52
e 110 52
e 55 53
e 57 53
e 58 53
e 62 53
e 65 53
e 68 53
e 69 53
e 73 53
e 75 53
e 76 53
e 77 53
e 80 53
e 81 53
e 83 53
e 84 53
e 87 53
e 88 53
e 89 53
e 90 53
e 98 53
e 102 53
e 103 53
e 104 53
e 110 53
e 112 53
e 113 53
e 59 54
e 63 54
e 65 54
e 68 54
e 72 54
e 78 54
e 79 54
e 81 54
e 83 54
e 86 54
e 87 54
e 93 54
e 96 54
e 97 54
e 102 54
e 104 54
e 106 54
e 107 54
e 108 54
e 111 54
e 57 55
e 59 55
e 62 55
e 63 55
e 65 55
e 68 55
e 79 55
e 82 55
e 88 55
e 93 55
e 94 55
e 96 55
e 100 55
e 102 55
e 103 55
e 106 55
e 108 55
e 112 55
e 113 55
e 61 56
e 62 56
e 64 56
e 65 56
e 67 56
e 68 56
e 72 56
e 79 56
e 80 56
e 83 56
e 87 56
e 89 56
e 93 56
e 94 56
e 97 56
e 98 56
e 100 56
e 102 56
e 106 56
e 110 56
e 113 56
e 58 57
e 60 57
e 65 57
e 66 57
e 68 57
e 75 57
e 78 57
e 79 57
e 80 57
e 83 57
e 88 57
e 90 57
e 93 57
e 99 57
e 102 57
e 104 57
e 113 57
e 59 58
e 72 58
e 75 58
e 78 58
e 81 58
e 93 58
e 97 58
e 99 58
e 102 58
e 106 58
e 62 59
e 79 59
e 85 59
e 88 59
e 89 59
e 97 59
e 98 59
e 99 59
e 101 59
e 102 59
e 103 59
e 104 59
e 105 59
e 106 59
e 110 59
e 112 59
e 65 60
e 68 60
e 71 60
e 77 60
e 78 60
e 85 60
e 96 60
e 99 60
e 102 60
e 106 60
e 68 61
e 71 61
e 77 61
e 79 61
e 81 61
e 83 61
e 85 61
e 87 61
e 89 61
e 90 61
e 93 61
e 97 61
e 98 61
e 102 61
e 106 61
e 113 61
e 65 62
e 71 62
e 73 62
e 75 62
e 78 62
e 79 62
e 81 62
e 82 62
e 85 62
e 89 62
e 93 62
e 94 62
e 99 62
e 102 62
e 103 62
e 104 62
e 106 62
e 108 62
e 110 62
e 113 62
e 64 63
e 72 63
e 83 63
e 86 63
e 87 63
e 94 63
e 96 63
e 98 63
e 102 63
e 106 63
e 72 64
e 78 64
e 83 64
e 86 64
e 88 64
e 94 64
e 99 64
e 100 64
e 102 64
e 106 64
e 66 65
e 69 65
e 71 65
e 73 65
e 78 65
e 82 65
e 83 65
e 86 65
e 87 65
e 88 65
e 89 65
e 93 65
e 99 65
e 100 65
e 102 65
e 104 65
e 105 65
e 106 65
e 108 65
e 109 65
e 112 65
e 113 65
e 67 66
e 68 66
e 72 66
e 76 66
e 78 66
e 80 66
e 81 66
e 83 66
e 84 66
e 86 66
e 87 66
e 93 66
e 95 66
e 100 66
e 102 66
e 103 66
e 104 66
e 106 66
e 109 66
e 110 66
e 85 67
e 88 67
e 92 67
e 93 67
e 94 67
e 97 67
e 102 67
e 104 67
e 113 67
e 70 68
e 71 68
e 75 68
e 76 68
e 81 68
e 87 68
e 91 68
e 92 68
e 94 68
e 100 68
e 102 68
e 108 68
e 113 68
e 73 69
e 104 69
e 105 69
e 108 69
e 112 69
e 85 70
e 96 70
e 82 71
e 85 71
e 91 71
e 93 71
e 96 71
e 98 71
e 99 71
e 100 71
e 103 71
e 106 71
e 108 71
e 78 72
e 79 72
e 85 72
e 86 72
e 93 72
e 95 72
e 99 72
e 100 72
e 102 72
e 103 72
e 106 72
e 107 72
e 108 72
e 109 72
e 111 72
e 79 73
e 88 73
e 89 73
e 97 73
e 102 73
e 108 73
e 109 73
e 112 73
e 81 75
e 86 75
e 89 75
e 90 75
e 93 75
e 99 75
e 100 75
e 102 75
e 104 75
e 105 75
e 106 75
e 108 75
e 110 75
e 112 75
e 79 76
e 86 76
e 89 76
e 111 76
e 86 77
e 92 77
e 106 77
e 110 77
e 87 78
e 92 78
e 93 78
e 94 78
e 97 78
e 100 78
e 106 78
e 111 78
e 81 79
e 82 79
e 85 79
e 87 79
e 89 79
e 90 79
e 95 79
e 96 79
e 98 79
e 102 79
e 104 79
e 105 79
e 107 79
e 88 80
e 93 80
e 95 80
e 98 80
e 99 80
e 106 80
e 110 80
e 90 81
e 93 81
e 96 81
e 99 81
e 104 81
e 106 81
e 108 81
e 83 82
e 85 82
e 88 82
e 89 82
e 93 82
e 104 82
e 112 82
e 113 82
e 85 83
e 88 83
e 89 83
e 93 83
e 94 83
e 96 83
e 98 83
e 99 83
e 100 83
e 102 83
e 104 83
e 106 83
e 113 83
e 102 84
e 105 84
e 106 84
e 112 84
e 87 85
e 88 85
e 89 85
e 93 85
e 94 85
e 102 85
e 104 85
e 106 85
e 107 85
e 108 85
e 112 85
e 87 86
e 89 86
e 95 86
e 96 86
e 97 86
e 102 86
e 103 86
e 112 86
e 89 87
e 93 87
e 96 87
e 97 87
e 102 87
e 103 87
e 104 87
e 106 87
e 107 87
e 108 87
e 111 87
e 113 87
e 92 88
e 94 88
e 98 88
e 102 88
e 104 88
e 106 88
e 108 88
e 111 88
e 112 88
e 113 88
e 91 89
e 92 89
e 93 89
e 94 89
e 97 89
e 98 89
e 100 89
e 102 89
e 104 89
e 105 89
e 106 89
e 107 89
e 108 89
e 110 89
e 93 90
e 94 90
e 99 90
e 103 90
e 108 90
e 93 91
e 94 91
e 100 91
e 102 91
e 110 91
e 94 92
e 98 92
e 102 92
e 113 92
e 94 93
e 99 93
e 100 93
e 102 93
e 104 93
e 108 93
e 110 93
e 113 93
e 98 94
e 99 94
e 100 94
e 102 94
e 105 94
e 107 94
e 97 96
e 98 96
e 99 96
e 102 96
e 104 96
e 106 96
e 110 96
e 113 96
e 99 97
e 102 97
e 103 97
e 108 97
e 111 97
e 112 97
e 113 97
e 102 98
e 108 98
e 102 99
e 104 99
e 106 99
e 109 99
e 112 99
e 113 99
e 105 100
e 106 100
e 109 100
e 113 100
e 105 101
e 106 101
e 113 101
e 104 102
e 105 102
e 106 102
e 108 102
e 109 102
e 112 102
e 113 102
e 104 103
e 106 103
e 112 103
e 113 103
e 106 104
e 107 104
e 108 104
e 113 104
e 113 105
e 108 106
e 111 106
e 112 106
e 113 106
e 108 107
e 112 108
e 113 108
e 111 110
e 112 111
